# Data section
data;

set ParkingSpaces := p1 p2 p3;
set WaitingCars := Car1 Car2 Car3 Car4 Car5;

param :
        initLoad :=
    p1     14
    p2     10
    p3     16;

param :
        maxCarCapacity :=
    p1     20
    p2     20
    p3     20;

param :
        parked_car_num :=
    p1     6
    p2     4
    p3     5;

param :
        numPeopleInCar :=
    Car1     5
    Car2     5
    Car3     4
    Car4     4
    Car5     2;